32405
219,229,252,313,319,560,599,638,668,835,852,874,883,894,946,1059,1104,1174,1198,1206,1267,1456,1527,1585,1660,1664,1672,1779,1838,1865,1927,2001,2141,2194,2286,2369,2381,2400,2416,2425,2462,2622,2653,2668,2683,2705,2800,2820,2825,2914,2917,3203,3215,3235,3257,3365,3375,3432,3575,3614,3730,3742,3803,3808,3827,3910,4037,4198,4297,4403,4420,4505,4548,4728,4730,4906
